p tw 30 147
e 0 3
e 0 5
e 0 8
e 0 11
e 0 16
e 0 17
e 0 18
e 0 25
e 0 26
e 1 2
e 1 3
e 1 4
e 1 5
e 1 7
e 1 10
e 1 13
e 1 16
e 1 18
e 1 21
e 1 22
e 1 23
e 1 25
e 1 26
e 2 5
e 2 7
e 2 10
e 2 13
e 2 14
e 2 17
e 2 20
e 2 22
e 2 27
e 3 9
e 3 13
e 3 16
e 3 18
e 3 20
e 3 25
e 3 28
e 4 10
e 4 12
e 4 13
e 4 15
e 4 19
e 4 20
e 4 21
e 4 26
e 4 28
e 4 29
e 5 8
e 5 14
e 5 19
e 5 20
e 5 22
e 5 24
e 5 26
e 5 27
e 5 28
e 6 9
e 6 14
e 6 21
e 6 27
e 7 10
e 7 14
e 7 19
e 7 24
e 7 25
e 7 27
e 7 28
e 8 11
e 8 15
e 8 21
e 8 23
e 8 25
e 8 26
e 8 27
e 8 28
e 9 17
e 9 18
e 9 20
e 9 23
e 9 24
e 9 26
e 9 27
e 10 11
e 10 12
e 10 13
e 10 23
e 10 25
e 11 13
e 11 14
e 11 19
e 11 22
e 11 24
e 11 27
e 12 18
e 12 21
e 12 28
e 13 14
e 13 16
e 13 17
e 13 19
e 13 20
e 13 21
e 13 22
e 13 29
e 14 17
e 14 20
e 14 24
e 14 26
e 15 18
e 15 19
e 15 22
e 15 29
e 16 17
e 16 20
e 16 21
e 16 22
e 16 25
e 16 26
e 17 22
e 18 20
e 18 25
e 19 21
e 19 22
e 19 25
e 19 27
e 19 28
e 19 29
e 20 21
e 20 26
e 20 27
e 20 28
e 21 22
e 21 29
e 22 26
e 22 28
e 23 25
e 23 28
e 24 27
e 24 28
e 24 29
e 25 29
e 26 27
e 26 29
e 27 29
e 28 29
